RST05
Position Depot: Center
Horizon for Depot: Small
Position of customers: Random
Distribution of the demand: Large
Width of time windows: Tight
Distribution of the service: Large

VEHICLE 
NUMBER 	 CAPACITY 
 7 	 	 374 
 
CUSTOMER
CUST NO. 	 XCOORD.  	 YCOORD. 	 DEMAND 	 READY TIME 	 DUE DATE 	 SERVICE TIME 
 0 	 	 500 	 	 500 	 	 0 	 	 0 	 	 2317 	 	 0 
  1 	 	 294 	 	 834 	 	 14 	 	 326 	 	 431 	 	 100 
  2 	 	 609 	 	 712 	 	 28 	 	 99 	 	 262 	 	 188 
  3 	 	 196 	 	 629 	 	 49 	 	 1172 	 	 1260 	 	 143 
  4 	 	 380 	 	 632 	 	 49 	 	 393 	 	 492 	 	 143 
  5 	 	 8 	 	 432 	 	 58 	 	 745 	 	 837 	 	 102 
  6 	 	 513 	 	 269 	 	 60 	 	 917 	 	 988 	 	 108 
  7 	 	 220 	 	 952 	 	 77 	 	 517 	 	 630 	 	 130 
  8 	 	 732 	 	 879 	 	 70 	 	 1386 	 	 1569 	 	 166 
  9 	 	 19 	 	 585 	 	 66 	 	 727 	 	 892 	 	 104 
  10 	 	 881 	 	 101 	 	 23 	 	 1642 	 	 1724 	 	 186 
  11 	 	 831 	 	 497 	 	 65 	 	 884 	 	 995 	 	 107 
  12 	 	 380 	 	 173 	 	 71 	 	 588 	 	 748 	 	 168 
  13 	 	 251 	 	 275 	 	 45 	 	 2150 	 	 2251 	 	 137 
  14 	 	 607 	 	 242 	 	 14 	 	 2204 	 	 2264 	 	 142 
  15 	 	 313 	 	 569 	 	 23 	 	 437 	 	 592 	 	 140 
  16 	 	 558 	 	 291 	 	 77 	 	 52 	 	 238 	 	 131 
  17 	 	 29 	 	 325 	 	 62 	 	 450 	 	 552 	 	 151 
  18 	 	 101 	 	 841 	 	 57 	 	 1570 	 	 1746 	 	 168 
  19 	 	 564 	 	 207 	 	 97 	 	 1794 	 	 1871 	 	 186 
  20 	 	 653 	 	 197 	 	 98 	 	 660 	 	 775 	 	 177 
  21 	 	 724 	 	 897 	 	 34 	 	 434 	 	 501 	 	 185 
  22 	 	 681 	 	 395 	 	 3 	 	 693 	 	 872 	 	 142 
  23 	 	 280 	 	 652 	 	 73 	 	 754 	 	 926 	 	 171 
  24 	 	 151 	 	 463 	 	 6 	 	 1467 	 	 1647 	 	 150 
  25 	 	 411 	 	 56 	 	 82 	 	 374 	 	 498 	 	 145 
  26 	 	 239 	 	 744 	 	 26 	 	 1786 	 	 1978 	 	 160 
  27 	 	 480 	 	 38 	 	 99 	 	 2194 	 	 2292 	 	 115 
  28 	 	 329 	 	 832 	 	 92 	 	 1146 	 	 1305 	 	 193 
  29 	 	 831 	 	 254 	 	 90 	 	 583 	 	 703 	 	 175 
  30 	 	 272 	 	 700 	 	 71 	 	 1495 	 	 1572 	 	 184 
  31 	 	 706 	 	 368 	 	 55 	 	 1995 	 	 2153 	 	 157 
  32 	 	 836 	 	 490 	 	 29 	 	 354 	 	 449 	 	 166 
  33 	 	 609 	 	 462 	 	 80 	 	 1881 	 	 1945 	 	 113 
  34 	 	 86 	 	 410 	 	 52 	 	 1040 	 	 1138 	 	 183 
  35 	 	 696 	 	 503 	 	 74 	 	 1391 	 	 1537 	 	 169 
  36 	 	 518 	 	 831 	 	 15 	 	 254 	 	 364 	 	 162 
  37 	 	 394 	 	 269 	 	 79 	 	 1056 	 	 1127 	 	 120 
  38 	 	 403 	 	 983 	 	 13 	 	 437 	 	 541 	 	 144 
  39 	 	 872 	 	 184 	 	 23 	 	 1093 	 	 1287 	 	 114 
  40 	 	 239 	 	 856 	 	 83 	 	 328 	 	 485 	 	 136 
  41 	 	 160 	 	 149 	 	 75 	 	 479 	 	 612 	 	 170 
  42 	 	 194 	 	 125 	 	 43 	 	 1970 	 	 2071 	 	 139 
  43 	 	 639 	 	 716 	 	 6 	 	 733 	 	 828 	 	 142 
  44 	 	 673 	 	 518 	 	 25 	 	 708 	 	 866 	 	 114 
  45 	 	 334 	 	 596 	 	 73 	 	 1055 	 	 1150 	 	 100 
  46 	 	 771 	 	 652 	 	 89 	 	 1997 	 	 2124 	 	 148 
  47 	 	 552 	 	 395 	 	 52 	 	 194 	 	 325 	 	 143 
  48 	 	 138 	 	 265 	 	 35 	 	 1762 	 	 1852 	 	 159 
  49 	 	 196 	 	 392 	 	 61 	 	 300 	 	 463 	 	 190 
  50 	 	 124 	 	 571 	 	 24 	 	 987 	 	 1116 	 	 152 
 